[VALIDATOR STDOUT]
Checking plan: /home/jfan5/Safety-gen/runs/benchmark/optic/delivery_20260205_114717/delivery/optic_results/delivery_size42_packages1_seed42001.plan
Plan executed successfully - checking goal
Plan valid
Final value: 102 

Successful plans:
Value: 102
 /home/jfan5/Safety-gen/runs/benchmark/optic/delivery_20260205_114717/delivery/optic_results/delivery_size42_packages1_seed42001.plan 102
